Name : eil51.tour
Comment : 1481,00176643609
TYPE : TOUR
DIMENSION : 51
TOUR_SECTION
35
32
51
39
14
12
38
26
34
48
20
40
29
27
6
24
10
13
42
45
47
33
1
7
23
5
22
36
3
41
2
28
9
25
19
46
15
43
44
50
17
31
30
21
4
37
8
16
18
49
11
-1
EOF
